RT is False
Default write of storage_offers_DA.csv just to have a file (but constraint should be inactive)
Reading model...
...model read.
creating competitive generators file...
...competitive generators recorded.
Loading data...
.. day-ahead data with real-time VRE data read.
Compiling instance...
...instance created.
Creating Offer Mitigation (model will solve as dispatch if TRUE)...
Solving...

Welcome to IBM(R) ILOG(R) CPLEX(R) Interactive Optimizer 12.8.0.0
  with Simplex, Mixed Integer & Barrier Optimizers
5725-A06 5725-A29 5724-Y48 5724-Y49 5724-Y54 5724-Y55 5655-Y21
Copyright IBM Corp. 1988, 2017.  All Rights Reserved.

Type 'help' for a list of available commands.
Type 'help' followed by a command name for more
information on commands.

CPLEX> Logfile 'cplex.log' closed.
Logfile 'C:\Users\llavi\Desktop\test919\logs\tmpdj45mneb.cplex.log' open.
CPLEX> New value for parallel optimization mode: -1
CPLEX> New value for mixed integer optimality gap tolerance: 0.01
CPLEX> New value for integrality tolerance: 1e-09
CPLEX> New value for feasibility tolerance: 0.01
CPLEX> New value for deterministic time limit in ticks: 75000
CPLEX> Problem 'C:\Users\llavi\Desktop\test919\logs\tmpw1b75hlq.pyomo.lp' read.
Read time = 0.06 sec. (3.03 ticks)
CPLEX> Problem name         : C:\Users\llavi\Desktop\test919\logs\tmpw1b75hlq.pyomo.lp
Objective sense      : Minimize
Variables            :   26465  [Nneg: 1,  Box: 22000,  Free: 4464]
Objective nonzeros   :    2496
Linear constraints   :   27515  [Less: 14006,  Greater: 4416,  Equal: 9093]
  Nonzeros           :   89171
  RHS nonzeros       :   12269

Variables            : Min LB: -5000.000        Max UB: 1000000.       
Objective nonzeros   : Min   : 15.73158         Max   : 124.0997       
Linear constraints   :
  Nonzeros           : Min   : 0.8500000        Max   : 3000.000       
  RHS nonzeros       : Min   : 0.008333333      Max   : 5000.000       
CPLEX> CPXPARAM_Simplex_Tolerances_Feasibility          0.01
CPXPARAM_Parallel                                -1
CPXPARAM_DetTimeLimit                            75000
CPXPARAM_MIP_Tolerances_MIPGap                   0.01
CPXPARAM_MIP_Tolerances_Integrality              1.0000000000000001e-09
Parallel mode: opportunistic, using up to 4 threads for concurrent optimization.
Tried aggregator 1 time.
LP Presolve eliminated 21401 rows and 15895 columns.
Aggregator did 728 substitutions.
Reduced LP has 5386 rows, 9842 columns, and 31752 nonzeros.
Presolve time = 0.03 sec. (22.47 ticks)

Iteration log . . .
Iteration:     1   Dual objective     =             0.000000
Perturbation started.
Iteration:   101   Dual objective     =             0.000000
Iteration:   366   Dual objective     =             1.381007
Iteration:   658   Dual objective     =             2.046969
Iteration:   966   Dual objective     =             2.198180
Iteration:  1167   Dual objective     =             2.314581
Iteration:  1512   Dual objective     =             2.371397
Iteration:  1814   Dual objective     =             2.400801
Iteration:  2108   Dual objective     =         13367.721600
Iteration:  2407   Dual objective     =         69319.216866
Iteration:  2729   Dual objective     =        168942.418352
Iteration:  3088   Dual objective     =        187884.824446
Iteration:  3415   Dual objective     =        189024.259615
Iteration:  3728   Dual objective     =        201499.781909
Iteration:  4117   Dual objective     =        203285.640021
Removing perturbation.

Dual simplex solved model.


Dual simplex - Optimal:  Objective =  2.0455217630e+05
Solution time =    0.16 sec.  Iterations = 4468 (0)
Deterministic time = 95.85 ticks  (610.50 ticks/sec)

CPLEX> Solution written to file 'C:\Users\llavi\Desktop\test919\logs\tmpb3vovowj.cplex.sol'.
CPLEX> Exporting results... 
...storage offer mitigation file created
Converting model to MPEC...
...converted
NOTE: initial MIP solve with only storage competitive to get feasible solution
Solving...

Welcome to IBM(R) ILOG(R) CPLEX(R) Interactive Optimizer 12.8.0.0
  with Simplex, Mixed Integer & Barrier Optimizers
5725-A06 5725-A29 5724-Y48 5724-Y49 5724-Y54 5724-Y55 5655-Y21
Copyright IBM Corp. 1988, 2017.  All Rights Reserved.

Type 'help' for a list of available commands.
Type 'help' followed by a command name for more
information on commands.

CPLEX> Logfile 'cplex.log' closed.
Logfile 'C:\Users\llavi\Desktop\test919\logs\tmpj9w56uy6.cplex.log' open.
CPLEX> New value for parallel optimization mode: -1
CPLEX> New value for mixed integer optimality gap tolerance: 0.01
CPLEX> New value for integrality tolerance: 1e-09
CPLEX> New value for feasibility tolerance: 0.01
CPLEX> New value for deterministic time limit in ticks: 75000
CPLEX> Problem 'C:\Users\llavi\Desktop\test919\logs\tmpqibjj7rs.pyomo.lp' read.
Read time = 0.27 sec. (13.96 ticks)
CPLEX> Problem name         : C:\Users\llavi\Desktop\test919\logs\tmpqibjj7rs.pyomo.lp
Objective sense      : Maximize
Variables            :   53805  [Nneg: 1,  Box: 22000,  Free: 4464,
                                 Binary: 27340]
Objective nonzeros   :    9076
Linear constraints   :  123205  [Less: 41346,  Greater: 59096,  Equal: 22763]
  Nonzeros           :  291703
  RHS nonzeros       :   67453

Variables            : Min LB: -5000.000        Max UB: 1000000.       
Objective nonzeros   : Min   : 0.008333333      Max   : 2500.000       
Linear constraints   :
  Nonzeros           : Min   : 0.008333333      Max   : 1000000.       
  RHS nonzeros       : Min   : 0.008333333      Max   : 1000000.       
CPLEX> CPXPARAM_Simplex_Tolerances_Feasibility          0.01
CPXPARAM_Parallel                                -1
CPXPARAM_DetTimeLimit                            75000
CPXPARAM_MIP_Tolerances_MIPGap                   0.01
CPXPARAM_MIP_Tolerances_Integrality              1.0000000000000001e-09
Tried aggregator 3 times.
MIP Presolve eliminated 88726 rows and 19074 columns.
MIP Presolve added 3345 rows and 0 columns.
MIP Presolve modified 23822 coefficients.
Aggregator did 12946 substitutions.
Reduced MIP has 24878 rows, 21229 columns, and 70938 nonzeros.
Reduced MIP has 8400 binaries, 0 generals, 0 SOSs, and 0 indicators.
Presolve time = 0.28 sec. (165.28 ticks)
Probing fixed 389 vars, tightened 2883 bounds.
Probing time = 3.17 sec. (891.41 ticks)
Tried aggregator 2 times.
MIP Presolve eliminated 872 rows and 778 columns.
MIP Presolve modified 2232 coefficients.
Aggregator did 45 substitutions.
Reduced MIP has 23961 rows, 20406 columns, and 68281 nonzeros.
Reduced MIP has 8011 binaries, 0 generals, 0 SOSs, and 0 indicators.
Presolve time = 0.14 sec. (54.25 ticks)
Probing time = 0.05 sec. (15.24 ticks)
Clique table members: 6404.
MIP emphasis: balance optimality and feasibility.
MIP search method: dynamic search.
Parallel mode: opportunistic, using up to 4 threads.
Root relaxation solution time = 0.47 sec. (476.87 ticks)

        Nodes                                         Cuts/
   Node  Left     Objective  IInf  Best Integer    Best Bound    ItCnt     Gap

      0     0        0.0000   705                      0.0000     3294         
*     0     0      integral     0        0.0000        0.0000     3294    0.00%
Elapsed time = 7.89 sec. (2847.80 ticks, tree = 0.01 MB, solutions = 1)

Root node processing (before b&c):
  Real time             =    7.91 sec. (2850.07 ticks)
Parallel b&c, 4 threads:
  Real time             =    0.00 sec. (0.00 ticks)
  Sync time (average)   =    0.00 sec.
  Wait time (average)   =    0.00 sec.
                          ------------
Total (root+branch&cut) =    7.91 sec. (2850.07 ticks)

Solution pool: 1 solution saved.

MIP - Integer optimal solution:  Objective =  1.5934347175e-09
Solution time =    7.91 sec.  Iterations = 3294  Nodes = 0
Deterministic time = 2850.22 ticks  (360.51 ticks/sec)

CPLEX> Incumbent solution written to file 'C:\Users\llavi\Desktop\test919\logs\tmpnx3ifp56.cplex.sol'.
CPLEX> NOTE: no warmstart specified for MIP iteration, default behavior is true
NOTE: resolving with all competitive generators using storage-only solution to warmstart
Solving...

Welcome to IBM(R) ILOG(R) CPLEX(R) Interactive Optimizer 12.8.0.0
  with Simplex, Mixed Integer & Barrier Optimizers
5725-A06 5725-A29 5724-Y48 5724-Y49 5724-Y54 5724-Y55 5655-Y21
Copyright IBM Corp. 1988, 2017.  All Rights Reserved.

Type 'help' for a list of available commands.
Type 'help' followed by a command name for more
information on commands.

CPLEX> Logfile 'cplex.log' closed.
Logfile 'C:\Users\llavi\Desktop\test919\logs\tmpub_5lg9d.cplex.log' open.
CPLEX> New value for parallel optimization mode: -1
CPLEX> New value for mixed integer optimality gap tolerance: 0.01
CPLEX> New value for integrality tolerance: 1e-09
CPLEX> New value for feasibility tolerance: 0.01
CPLEX> New value for deterministic time limit in ticks: 75000
CPLEX> Problem 'C:\Users\llavi\Desktop\test919\logs\tmpoflir_lo.pyomo.lp' read.
Read time = 0.30 sec. (13.98 ticks)
CPLEX> MIP start file 'C:\Users\llavi\Desktop\test919\logs\tmpmam_rtq4.cplex.mst' read.
CPLEX> Problem name         : C:\Users\llavi\Desktop\test919\logs\tmpoflir_lo.pyomo.lp
Objective sense      : Maximize
Variables            :   54525  [Nneg: 1,  Box: 22720,  Free: 4464,
                                 Binary: 27340]
Objective nonzeros   :    9772
Linear constraints   :  123205  [Less: 41346,  Greater: 59096,  Equal: 22763]
  Nonzeros           :  291703
  RHS nonzeros       :   67453

Variables            : Min LB: -5000.000        Max UB: 1000000.       
Objective nonzeros   : Min   : 0.008333333      Max   : 2500.000       
Linear constraints   :
  Nonzeros           : Min   : 0.008333333      Max   : 1000000.       
  RHS nonzeros       : Min   : 0.008333333      Max   : 1000000.       
CPLEX> CPXPARAM_Simplex_Tolerances_Feasibility          0.01
CPXPARAM_Parallel                                -1
CPXPARAM_DetTimeLimit                            75000
CPXPARAM_MIP_Tolerances_MIPGap                   0.01
CPXPARAM_MIP_Tolerances_Integrality              1.0000000000000001e-09
Warning:  No solution found from 1 MIP starts.
Retaining values of one MIP start for possible repair.
Tried aggregator 3 times.
MIP Presolve eliminated 88726 rows and 19794 columns.
MIP Presolve added 3345 rows and 0 columns.
MIP Presolve modified 23822 coefficients.
Aggregator did 12946 substitutions.
Reduced MIP has 24878 rows, 21229 columns, and 70938 nonzeros.
Reduced MIP has 8400 binaries, 0 generals, 0 SOSs, and 0 indicators.
Presolve time = 0.27 sec. (165.63 ticks)
Probing fixed 389 vars, tightened 2883 bounds.
Probing time = 3.28 sec. (891.41 ticks)
Tried aggregator 2 times.
MIP Presolve eliminated 872 rows and 778 columns.
MIP Presolve modified 2232 coefficients.
Aggregator did 45 substitutions.
Reduced MIP has 23961 rows, 20406 columns, and 68281 nonzeros.
Reduced MIP has 8011 binaries, 0 generals, 0 SOSs, and 0 indicators.
Presolve time = 0.13 sec. (54.24 ticks)
Probing time = 0.05 sec. (15.24 ticks)
Clique table members: 6404.
MIP emphasis: balance optimality and feasibility.
MIP search method: dynamic search.
Parallel mode: opportunistic, using up to 4 threads.
Root relaxation solution time = 0.55 sec. (564.56 ticks)

        Nodes                                         Cuts/
   Node  Left     Objective  IInf  Best Integer    Best Bound    ItCnt     Gap

      0     0   138438.5208   890                 138438.5208     3357         
      0     0   136343.8375   710                   Cuts: 681     3669         
      0     0   135360.4030   602                   Cuts: 365     3810         
      0     0   135320.3222   548                   Cuts: 225     3911         
      0     0   135290.0330   524                   Cuts: 116     3973         
      0     0   135258.6042   506                    Cuts: 85     4019         
      0     0   135258.6042   503                    Cuts: 59     4047         
      0     0   135258.6042   495                    Cuts: 45     4066         
      0     0   135258.6042   489                    Cuts: 24     4080         
Repair heuristic found nothing.
      0     2   135258.6042   488                 135243.9378     4080         
Elapsed time = 39.80 sec. (14247.32 ticks, tree = 0.03 MB, solutions = 0)
     76    70   127239.3239   368                 133695.2210     4772         
    161   106   121928.3151   367                 133695.2210     6034         
    236   159   103029.8661   363                 133695.2210     6494         
    299   218   103970.8035   346                 133695.2210     7102         
    388   285    91876.6125   316                 133695.2210     7623         
    458   325    72131.1397   327                 133695.2210     7813         
    505   367    74513.0532   315                 133695.2210     8129         
    641   448    71372.5044   299                 133695.2210     8475         
    788   593    74513.0532   293                 133695.2210     8602         
   1419  1204    74513.0532   271                 133695.2210     8744         
Elapsed time = 47.05 sec. (17390.47 ticks, tree = 14.16 MB, solutions = 0)
*  1696  1447      integral     0    75024.4750   133695.2210     8804   78.20%
   1897   950   128740.8713   405    75024.4750   131861.9430     9639   75.76%
   2199  1069   128740.8713   401    75024.4750   131861.9430    12266   75.76%
   2327  1264   122234.7828   218    75024.4750   131625.7757    22300   75.44%
   2547    94   123036.5824   156    75024.4750   124815.9601    23107   66.37%
   2746   408    86979.2566   113    75024.4750   124815.9601    25858   66.37%
   2998   607    90206.6445   111    75024.4750   124408.1906    28077   65.82%
   3215   729   101392.5162   117    75024.4750   124408.1906    29501   65.82%
   3356   929    78245.5515    93    75024.4750   124408.1906    30695   65.82%
   3608  1089    80096.0776   120    75024.4750   124408.1906    31914   65.82%
Elapsed time = 83.88 sec. (31306.80 ticks, tree = 10.27 MB, solutions = 1)
   3903  1352    85845.0005    28    75024.4750   124408.1906    34475   65.82%
*  3948  1382      integral     0    85844.8235   124408.1906    34536   44.92%
   4138  1042        cutoff          85844.8235   124158.6312    36655   44.63%
   4366  1304   111628.5529   181    85844.8235   124022.0870    39481   44.47%
   4642  1487    91327.3705   117    85844.8235   123671.5847    41549   44.06%
   4991  1801    91306.2362   122    85844.8235   123671.5847    44265   44.06%
   5289  1987    88609.0909    90    85844.8235   123671.5847    45306   44.06%
   5615  2359    87801.4854    89    85844.8235   123512.6983    48650   43.88%
   5732  2475    87131.5003    93    85844.8235   123512.6983    49147   43.88%
   5913  2553    93536.8980   152    85844.8235   123456.4692    49946   43.81%
Elapsed time = 105.45 sec. (40185.18 ticks, tree = 23.65 MB, solutions = 2)
   6204  2722   122305.7802   161    85844.8235   123372.7633    52097   43.72%
   6466  2987    93283.1541   143    85844.8235   123357.9993    56666   43.70%
   6818  3407    86065.8413    90    85844.8235   123357.9993    60364   43.70%
   7167  3525        cutoff          85844.8235   123357.9993    61661   43.70%
   7483  3762    86549.5791    89    85844.8235   123200.6892    64096   43.52%
   7822  4009    92043.6934   150    85844.8235   123179.2441    67081   43.49%
   8171  4434    92580.9171   126    85844.8235   123119.5715    70117   43.42%
   8500  4598    89836.9511    85    85844.8235   123033.8524    71304   43.32%
   8808  5054    87822.3271    94    85844.8235   123033.8524    74187   43.32%
   9120  5425    88011.8646    85    85844.8235   123003.6945    77676   43.29%
Elapsed time = 127.97 sec. (49745.03 ticks, tree = 50.83 MB, solutions = 2)
   9485  5557    87158.2063    83    85844.8235   123003.6945    78202   43.29%
   9820  5850    86134.6637    89    85844.8235   122968.5111    80927   43.25%
  10038  6002        cutoff          85844.8235   122968.5111    81942   43.25%
  10047  6191        cutoff          85844.8235   122962.3412    83147   43.24%
  10078  6205    88468.1658   139    85844.8235   122934.9776    83580   43.21%
  10422  6291    87228.9294    84    85844.8235   122934.9776    84021   43.21%
  10788  6609    88351.4820   128    85844.8235   122910.4731    86735   43.18%
  11125  6793        cutoff          85844.8235   122820.9502    89074   43.07%
  11448  6965    91024.3641    83    85844.8235   122820.9502    89632   43.07%
  11766  7402        cutoff          85844.8235   122820.9502    94301   43.07%
Elapsed time = 154.02 sec. (59662.12 ticks, tree = 72.95 MB, solutions = 2)
  12051  7656   110384.5733   144    85844.8235   122467.3381    98198   42.66%
  12424  7853    89846.8360    89    85844.8235   122467.3381   100183   42.66%
  12723  8126    89846.1873    84    85844.8235   122273.8375   102303   42.44%
  13049  8644    90290.2181    80    85844.8235   122143.0033   107092   42.28%
  13398  9168    88642.2773    56    85844.8235   122125.9377   111285   42.26%
  13686  8938    86761.4931    89    85844.8235   122125.9377   110050   42.26%
  13954  9396    89620.1482    93    85844.8235   121786.9212   112536   41.87%
  14288  9607    89535.1377   115    85844.8235   121786.9212   115090   41.87%
  14557  9710   100910.2862   137    85844.8235   121522.9901   116788   41.56%
  14931 10108    86075.1747    93    85844.8235   121522.9901   121000   41.56%
Elapsed time = 175.80 sec. (69225.62 ticks, tree = 98.28 MB, solutions = 2)
  15241 10335    90738.0611   149    85844.8235   121397.0047   123466   41.41%
  15568 10482    86276.7685    87    85844.8235   121397.0047   124311   41.41%
  15955 10569    89833.5257    81    85844.8235   121397.0047   125098   41.41%
  16256 11035    91395.8142   187    85844.8235   121389.7997   130802   41.41%
  16550 11470    86061.6369   101    85844.8235   121230.7924   132865   41.22%
  16758 11569    94699.4477   100    85844.8235   120959.2783   135014   40.90%

GUB cover cuts applied:  1
Clique cuts applied:  15
Cover cuts applied:  17
Implied bound cuts applied:  15
Flow cuts applied:  314
Mixed integer rounding cuts applied:  30
Gomory fractional cuts applied:  72

Root node processing (before b&c):
  Real time             =   39.45 sec. (14186.15 ticks)
Parallel b&c, 4 threads:
  Real time             =  146.89 sec. (60826.10 ticks)
  Sync time (average)   =    0.66 sec.
  Wait time (average)   =    0.02 sec.
                          ------------
Total (root+branch&cut) =  186.34 sec. (75012.25 ticks)

Solution pool: 2 solutions saved.

MIP - Deterministic time limit exceeded, integer feasible:  Objective =  8.5844823461e+04
Current MIP best bound =  1.2073861074e+05 (gap = 34893.8, 40.65%)
Solution time =  186.36 sec.  Iterations = 139025  Nodes = 16763 (11820)
Deterministic time = 75012.41 ticks  (402.52 ticks/sec)

CPLEX> Incumbent solution written to file 'C:\Users\llavi\Desktop\test919\logs\tmp9xnktcky.cplex.sol'.
CPLEX> Exporting results... 
